
Gurobi 11.0.3 (linux64) logging started Fri Nov 22 08:26:59 2024

Set parameter LogFile to value "/home/yihong/Coding/OR_SUC/SUC_results_bigM100000_thread4/case24_ieee_rts_theta0.1_epsilon0.05_gurobi_seed1170000_num_gen100_N_WDR100_load_scaling_factor1_proposed_T20quadra_cost.txt"
Set parameter TimeLimit to value 3600
Gurobi Optimizer version 11.0.3 build v11.0.3rc0 (linux64 - "Ubuntu 20.04.6 LTS")

CPU model: AMD EPYC 7532 32-Core Processor, instruction set [SSE2|AVX|AVX2]
Thread count: 64 physical cores, 128 logical processors, using up to 4 threads

Optimize a model with 47882 rows, 24901 columns and 1096282 nonzeros
Model fingerprint: 0xe3ddfc7e
Model has 2000 quadratic constraints
Variable types: 22901 continuous, 2000 integer (2000 binary)
Coefficient statistics:
  Matrix range     [3e-04, 3e+03]
  QMatrix range    [2e-03, 8e-03]
  QLMatrix range   [8e-02, 6e+01]
  Objective range  [1e+00, 1e+00]
  Bounds range     [1e+00, 1e+00]
  RHS range        [1e+00, 9e+03]
Presolve removed 39191 rows and 10606 columns
Presolve time: 0.33s
Presolved: 8691 rows, 14295 columns, 47964 nonzeros
Presolved model has 2000 quadratic constraint(s)
Variable types: 12295 continuous, 2000 integer (2000 binary)

Root relaxation: objective 3.074441e+04, 6989 iterations, 0.18 seconds (0.27 work units)

    Nodes    |    Current Node    |     Objective Bounds      |     Work
 Expl Unexpl |  Obj  Depth IntInf | Incumbent    BestBd   Gap | It/Node Time

     0     0 30744.4099    0   20          - 30744.4099      -     -    0s
     0     0 247245.713    0  749          - 247245.713      -     -    1s
     0     0 501691.757    0  779          - 501691.757      -     -    1s
     0     0 501802.086    0  464          - 501802.086      -     -    1s
     0     0 502061.830    0  232          - 502061.830      -     -    1s
     0     0 502070.726    0  232          - 502070.726      -     -    1s
     0     0 502073.503    0  232          - 502073.503      -     -    1s
     0     2 502073.503    0  232          - 502073.503      -     -    2s
H  450   363                    502154.67446 502073.503  0.02%  18.6    5s
*  450   363             145    502154.67446 502073.503  0.02%  18.6    5s

Cutting planes:
  Gomory: 7
  Implied bound: 238
  MIR: 126
  Flow cover: 521

Explored 559 nodes (28981 simplex iterations) in 5.50 seconds (7.99 work units)
Thread count was 4 (of 128 available processors)

Solution count 2: 502155 502155 

Optimal solution found (tolerance 1.00e-03)
Warning: max constraint violation (1.0438e-07) exceeds tolerance
Best objective 5.021546744621e+05, best bound 5.020735027460e+05, gap 0.0162%
